Pt   C   O   H   
    1.0000000000000000
      8.4159000000000000    0.0000000000000000    0.0000000000000000
      4.2079500000000000    7.2883832000000000    0.0000000000000000
      0.0000000000000000    0.0000000000000000    38.6681600000000003
   Pt   C   O   H
    27   3   3   7
Select
Direct
  0.4030329994339965    0.4581809005319570    0.0000000012930528    F   F   F
  0.4030329998403985    0.7915140001599781    0.0000000012930528    F   F   F
  0.4030330005534921    0.1248479998507221    0.0000000012930528    F   F   F
  0.0696990002966444    0.4581809005319570    0.0000000012930528    F   F   F
  0.0696989995148201    0.7915140001599781    0.0000000012930528    F   F   F
  0.0696990002279207    0.1248479998507221    0.0000000012930528    F   F   F
  0.7363659992712073    0.4581809005319570    0.0000000012930528    F   F   F
  0.7363659996776093    0.7915140001599781    0.0000000012930528    F   F   F
  0.7363660003907100    0.1248479998507221    0.0000000012930528    F   F   F
  0.2919229995283814    0.6804009998928464    0.0592400013344303    F   F   F
  0.2919230005343891    0.0137409995443463    0.0592400013344303    F   F   F
  0.2919230000313888    0.3470709997185963    0.0592400013344303    F   F   F
  0.9585929999680260    0.6804009998928464    0.0592400013344303    F   F   F
  0.9585929997858074    0.0137409995443463    0.0592400013344303    F   F   F
  0.9585930004710335    0.3470709997185963    0.0592400013344303    F   F   F
  0.6252525000327864    0.6804009998928464    0.0592400013344303    F   F   F
  0.6252525996617564    0.0137409995443463    0.0592400013344303    F   F   F
  0.6252525005357867    0.3470709997185963    0.0592400013344303    F   F   F
  0.1808129996139201    0.5692910002921110    0.1184700011585775    F   F   F
  0.1808130002991462    0.9026210004663611    0.1184700011585775    F   F   F
  0.1808130001169275    0.2359610001178609    0.1184700011585775    F   F   F
  0.8474729999228643    0.5692910002921110    0.1184700011585775    F   F   F
  0.8474729994198569    0.9026210004663611    0.1184700011585775    F   F   F
  0.8474730004258646    0.2359610001178609    0.1184700011585775    F   F   F
  0.5141430003625089    0.5692910002921110    0.1184700011585775    F   F   F
  0.5141429998595015    0.9026210004663611    0.1184700011585775    F   F   F
  0.5141429996772828    0.2359610001178609    0.1184700011585775    F   F   F
  0.8837940005889564    0.7087999996158274    0.1843700013137450    T   T   T
  0.7191449996380612    0.8339430005099899    0.2073400011792614    T   T   T
  0.0447490005095332    0.5302910001549037    0.2004860011440925    T   T   T
  0.9478089995513699    0.8058049997660675    0.1664570013158126    T   T   T
  0.1887509997301109    0.5483359994489874    0.2139650011792682    T   T   T
  0.7777929996231663    0.9110380000716205    0.2332850011482321    T   T   T
  0.8200529995609642    0.6428930005168496    0.1653790012247782    T   T   T
  0.6648194997587566    0.7496289999109536    0.2186100010965077    T   T   T
  0.9828869995738003    0.4796914006004869    0.2196320011089199    T   T   T
  0.1016359996146079    0.4314348001291393    0.1786510012371920    T   T   T
  0.6126829997384462    0.9394239996509484    0.1902780013323593    T   T   T
  0.1696920001091300    0.5746530004400157    0.2389580011047840    T   T   T
  0.6820902994245799    0.0390450005289225    0.2378860012992590    T   T   T